(set-info :smt-lib-version 2.6)
(set-logic QF_S)
(set-info :source |
Generated by: Murphy Berzish, Mitja Kulczynski, Federico Mora, Florin Manea, Joel Day, Dirk Nowotka, Vijay Ganesh, Zhengyang Lu
Generated on: 2020-10-01
Description: Translated from a collection of real-world regex queries, AutomataArk, collected by Loris D’Antoni and Fang Wang: https://github.com/lorisdanto/automatark
Application: Evaluate solvers on real-world regex queries
Target solver: Z3str3RE, CVC4, OSTRICH, Z3seq, Z3str3, Z3-Trau
Publications: Berzish, M., Kulczynski, M., Mora, F., Manea, F., Day, J. D., Nowotka, D., & Ganesh, V. (2021, July). An SMT solver for regular expressions and linear arithmetic over string length. In CAV 2021.
|)
(set-info :license "https://creativecommons.org/licenses/by/4.0/")
(set-info :category "industrial")
(set-info :status unsat)

(declare-const X String)
(assert (not (str.in_re X (re.++ (str.to_re "\u{a}") (re.union (re.++ (str.to_re "1") ((_ re.loop 2 2) (re.range "0" "9"))) (re.++ (str.to_re "22") (re.range "0" "3")) (re.++ (re.range "1" "9") (re.range "0" "9")) (re.++ (str.to_re "2") (re.union (str.to_re "0") (str.to_re "1")) (re.range "0" "9")) (re.range "1" "9")) re.allchar (re.union (re.++ (str.to_re "1") ((_ re.loop 2 2) (re.range "0" "9"))) (re.++ (str.to_re "2") (re.range "0" "4") (re.range "0" "9")) (re.++ (str.to_re "25") (re.range "0" "5")) (re.++ (re.range "1" "9") (re.range "0" "9")) (re.range "0" "9")) re.allchar (re.union (re.++ (str.to_re "1") ((_ re.loop 2 2) (re.range "0" "9"))) (re.++ (str.to_re "2") (re.range "0" "4") (re.range "0" "9")) (re.++ (str.to_re "25") (re.range "0" "5")) (re.++ (re.range "1" "9") (re.range "0" "9")) (re.range "0" "9")) re.allchar (re.union (re.++ (str.to_re "1") ((_ re.loop 2 2) (re.range "0" "9"))) (re.++ (str.to_re "2") (re.range "0" "4") (re.range "0" "9")) (re.++ (str.to_re "25") (re.range "0" "5")) (re.++ (re.range "1" "9") (re.range "0" "9")) (re.range "0" "9"))))))
(assert (str.in_re X (str.to_re "e2give.comADRemoteHost:\u{a}")))
(assert (str.in_re X (re.++ (str.to_re "/filename=") (re.* (re.comp (str.to_re "\u{a}"))) (str.to_re ".wmx/i\u{a}"))))
(assert (str.in_re X (re.++ (str.to_re "//") ((_ re.loop 5 5) (re.++ (re.+ (re.union (re.range "a" "z") (re.range "A" "Z") (re.range "0" "9") (str.to_re "-") (str.to_re "&") (str.to_re "+") (str.to_re " "))) (re.union (str.to_re "/") (str.to_re "?")) (str.to_re "="))) (str.to_re "/Ui\u{a}"))))
(assert (str.in_re X (str.to_re "DaysLOGHost:Host:}{OS:Host:\u{a}")))
(check-sat)

(exit)
